(declare-fun temp559_1 () (_ BitVec 64))
(declare-fun var89147 () (_ BitVec 64))
(declare-fun k!0 () Bool)
(declare-fun ARGNAME_source_NAMEEND_LEN () (_ BitVec 64))
(declare-fun ARGNAME_destination_NAMEEND_LEN () (_ BitVec 64))
(declare-fun temp559_3 () (_ BitVec 64))
(declare-fun temp559_2 () (_ BitVec 64))
(declare-fun temp559_4 () (_ BitVec 64))
(declare-fun var201290 () (_ BitVec 64))
(declare-fun var201292 () (_ BitVec 64))
(declare-fun temp559_5 () (_ BitVec 64))
(declare-fun var461075 () (_ BitVec 64))
(declare-fun temp559_7 () (_ BitVec 64))
(declare-fun temp559_6 () (_ BitVec 64))
(declare-fun temp559_8 () (_ BitVec 64))
(declare-fun var856650 () (_ BitVec 64))
(declare-fun var856652 () (_ BitVec 64))
(declare-fun temp559_9 () (_ BitVec 64))
(declare-fun var1116435 () (_ BitVec 64))
(declare-fun temp559_11 () (_ BitVec 64))
(declare-fun temp559_10 () (_ BitVec 64))
(declare-fun var1577925 () (_ BitVec 64))
(declare-fun temp559_12 () (_ BitVec 64))
(declare-fun temp559_13 () (_ BitVec 64))
(declare-fun var1643466 () (_ BitVec 64))
(declare-fun temp559_15 () (_ BitVec 64))
(declare-fun temp559_14 () (_ BitVec 64))
(declare-fun var2298821 () (_ BitVec 64))
(declare-fun temp559_16 () (_ BitVec 64))
(declare-fun temp559_17 () (_ BitVec 64))
(declare-fun var2364362 () (_ BitVec 64))
(declare-fun temp559_18 () (_ BitVec 64))
(declare-fun var3019338 () (_ BitVec 64))
(declare-fun var3019340 () (_ BitVec 64))
(declare-fun temp559_19 () (_ BitVec 64))
(declare-fun var4461130 () (_ BitVec 64))
(declare-fun var4461132 () (_ BitVec 64))
(declare-fun temp559_20 () (_ BitVec 64))
(declare-fun ARGNAME_input_NAMEEND_DIM () (_ BitVec 64))
(declare-fun var89269 () (_ BitVec 64))
(declare-fun temp559_21 () (_ BitVec 64))
(declare-fun temp559_23 () (_ BitVec 64))
(declare-fun temp559_22 () (_ BitVec 64))
(declare-fun temp559_24 () (_ BitVec 64))
(declare-fun var5837386 () (_ BitVec 64))
(declare-fun var5837388 () (_ BitVec 64))
(declare-fun temp559_26 () (_ BitVec 64))
(declare-fun temp559_25 () (_ BitVec 64))
(declare-fun temp559_27 () (_ BitVec 64))
(declare-fun var6754890 () (_ BitVec 64))
(declare-fun var6754892 () (_ BitVec 64))
(declare-fun temp559_29 () (_ BitVec 64))
(declare-fun temp559_28 () (_ BitVec 64))
(declare-fun temp559_30 () (_ BitVec 64))
(declare-fun var7672394 () (_ BitVec 64))
(declare-fun var7672396 () (_ BitVec 64))
(declare-fun temp559_32 () (_ BitVec 64))
(declare-fun temp559_31 () (_ BitVec 64))
(declare-fun var9442245 () (_ BitVec 64))
(declare-fun temp559_33 () (_ BitVec 64))
(declare-fun temp559_34 () (_ BitVec 64))
(declare-fun var9507786 () (_ BitVec 64))
(declare-fun temp559_36 () (_ BitVec 64))
(declare-fun temp559_35 () (_ BitVec 64))
(declare-fun temp559_38 () (_ BitVec 64))
(declare-fun temp559_37 () (_ BitVec 64))
(declare-fun temp559_40 () (_ BitVec 64))
(declare-fun temp559_39 () (_ BitVec 64))
(declare-fun temp559_42 () (_ BitVec 64))
(declare-fun temp559_41 () (_ BitVec 64))
(declare-fun var89398 () (_ BitVec 64))
(declare-fun var11078521 () (_ BitVec 64))
(declare-fun temp559_44 () (_ BitVec 64))
(declare-fun temp559_43 () (_ BitVec 64))
(declare-fun var11144513 () (_ BitVec 64))
(declare-fun var11144514 () (_ BitVec 64))
(declare-fun temp559_45 () (_ BitVec 64))
(declare-fun temp559_46 () (_ BitVec 64))
(declare-fun var11210055 () (_ BitVec 64))
(declare-fun var11275602 () (_ BitVec 64))
(declare-fun var11078541 () (_ BitVec 64))
(assert (= var89147
   (ite (= ARGNAME_source_NAMEEND_LEN ARGNAME_destination_NAMEEND_LEN)
        #x0000000000000001
        #x0000000000000000)))
(assert (= temp559_1 #x0000000000000001))
(assert (= var89147 temp559_1))
(assert (= temp559_3 #x0000000000000000))
(assert (= temp559_2 temp559_3))
(assert (= temp559_4 #x0000000000000005))
(assert (= var201290 temp559_4))
(assert (= var201292 var201290))
(assert (= temp559_5 #x0000000000000000))
(assert (= var461075 temp559_5))
(assert (= temp559_7 #x0000000000000000))
(assert (= temp559_6 temp559_7))
(assert (= temp559_8 #x0000000000000005))
(assert (= var856650 temp559_8))
(assert (= var856652 var856650))
(assert (= temp559_9 #x0000000000000000))
(assert (= var1116435 temp559_9))
(assert (= temp559_11 #x0000000000000000))
(assert (= temp559_10 temp559_11))
(assert (= var1577925
   (ite (bvslt temp559_10 ARGNAME_source_NAMEEND_LEN)
        #x0000000000000001
        #x0000000000000000)))
(assert (= temp559_12
   (ite (= var1577925 #x0000000000000001) ARGNAME_source_NAMEEND_LEN temp559_10)))
(assert (= temp559_13 #x0000000000000000))
(assert (= var1643466 temp559_13))
(assert (= temp559_15 #x0000000000000000))
(assert (= temp559_14 temp559_15))
(assert (= var2298821
   (ite (bvslt temp559_14 ARGNAME_destination_NAMEEND_LEN)
        #x0000000000000001
        #x0000000000000000)))
(assert (= temp559_16
   (ite (= var2298821 #x0000000000000001)
        ARGNAME_destination_NAMEEND_LEN
        temp559_14)))
(assert (= temp559_17 #x0000000000000000))
(assert (= var2364362 temp559_17))
(assert (= temp559_18 #x0000000000000005))
(assert (= var3019338 temp559_18))
(assert (= var3019340 var3019338))
(assert (= temp559_19 #x0000000000000005))
(assert (= var4461130 temp559_19))
(assert (= var4461132 var4461130))
(assert (= temp559_20 #x0000000000000000))
(assert (= var89269
   (ite (= ARGNAME_input_NAMEEND_DIM temp559_20)
        #x0000000000000001
        #x0000000000000000)))
(assert (= temp559_21 #x0000000000000000))
(assert (= var89269 temp559_21))
(assert (= temp559_23 #x0000000000000000))
(assert (= temp559_22 temp559_23))
(assert (= temp559_24 #x0000000000000005))
(assert (= var5837386 temp559_24))
(assert (= var5837388 var5837386))
(assert (= temp559_26 #x0000000000000000))
(assert (= temp559_25 temp559_26))
(assert (= temp559_27 #x0000000000000005))
(assert (= var6754890 temp559_27))
(assert (= var6754892 var6754890))
(assert (= temp559_29 #x0000000000000000))
(assert (= temp559_28 temp559_29))
(assert (= temp559_30 #x0000000000000005))
(assert (= var7672394 temp559_30))
(assert (= var7672396 var7672394))
(assert (= temp559_32 #x0000000000000000))
(assert (= temp559_31 temp559_32))
(assert (= var9442245
   (ite (bvslt temp559_31 ARGNAME_source_NAMEEND_LEN)
        #x0000000000000001
        #x0000000000000000)))
(assert (= temp559_33
   (ite (= var9442245 #x0000000000000001) ARGNAME_source_NAMEEND_LEN temp559_31)))
(assert (= temp559_34 #x0000000000000000))
(assert (= var9507786 temp559_34))
(assert (= temp559_36 #xffffffffffffffff))
(assert (= temp559_35 temp559_36))
(assert (= temp559_38 #xffffffffffffffff))
(assert (= temp559_37 temp559_38))
(assert (= temp559_40 #xffffffffffffffff))
(assert (= temp559_39 temp559_40))
(assert (= temp559_42 #xffffffffffffffff))
(assert (= temp559_41 temp559_42))
(assert (= var89398 (bvsub ARGNAME_input_NAMEEND_DIM ARGNAME_source_NAMEEND_LEN)))
(assert (= var11078521 var89398))
(assert (= temp559_44 #x0000000000000000))
(assert (= temp559_43 temp559_44))
(assert (= var11144513 var11078521))
(assert (= var11144514
   (ite (bvslt temp559_43 var11144513) #x0000000000000001 #x0000000000000000)))
(assert (= temp559_45 (ite (= var11144514 #x0000000000000001) var11078521 temp559_43)))
(assert (= temp559_46 #x0000000000000000))
(assert (= var11210055 temp559_46))
(assert (= var11275602 var11210055))
(assert (= var11078541 var11275602))
(model-add temp559_1 () (_ BitVec 64) #x0000000000000001)
(model-add var89147 () (_ BitVec 64) #x0000000000000001)
(model-del k!0)
(model-add ARGNAME_source_NAMEEND_LEN
           ()
           (_ BitVec 64)
           (ite k!0
                ARGNAME_destination_NAMEEND_LEN
                (bvnot ARGNAME_destination_NAMEEND_LEN)))



